p edge 13 38
e 1 5
e 1 5
e 2 12
e 2 7
e 2 7
e 2 12
e 3 4
e 3 5
e 3 8
e 3 4
e 3 5
e 3 8
e 4 8
e 4 5
e 4 6
e 4 5
e 4 6
e 4 8
e 6 9
e 6 7
e 6 7
e 6 9
e 7 10
e 7 10
e 8 13
e 8 9
e 8 10
e 8 9
e 8 10
e 8 13
e 9 10
e 9 12
e 9 10
e 9 12
e 10 11
e 10 11
e 12 13
e 12 13
